logs/miss/qp/miss-06-15-0.lp
\ LP format - for model browsing. Use MPS format to capture full model detail.
Minimize
  x0 + x1 + x2 + x3 + x4 + x5 + x6 + x7 + x8 + x9 + x10 + x11 + x12 + x13
   + x14 + x15 + x16 + x17 + x18 + x19 + x20 + x21 + x22 + x23 + x24 + x25
   + x26 + x27 + x28 + x29 + x30 + x31 + x32 + x33 + x34 + x35 + x36 + x37
   + x38 + x39 + x40 + x41 + x42 + x43 + x44 + x45 + x46 + x47 + x48 + x49
   + x50 + x51 + x52 + x53 + x54 + x55 + x56 + x57 + x58 + x59 + x60 + x61
   + x62 + x63 + x64 + x65 + x66 + x67 + x68 + x69 + x70 + x71 + x72 + x73
   + x74 + x75 + x76 + x77 + x78 + x79 + x80 + x81 + x82 + x83 + x84 + x85
   + x86 + x87 + x88 + x89 + x90 + x91 + x92 + x93 + x94 + x95 + x96 + x97
   + x98 + x99 + x100 + x101 + x102 + x103 + x104 + x105
Subject To
 R0: x0 = 1
 qc0: [ x0 * x6 + x1 * x7 + x2 * x8 + x3 * x9 + x4 * x10 + x5 * x11
   + x6 * x12 + x7 * x13 + x8 * x14 + x9 * x15 + x10 * x16 + x11 * x17
   + x12 * x18 + x13 * x19 + x14 * x20 + x15 * x21 + x16 * x22 + x17 * x23
   + x18 * x24 + x19 * x25 + x20 * x26 + x21 * x27 + x22 * x28 + x23 * x29
   + x24 * x30 + x25 * x31 + x26 * x32 + x27 * x33 + x28 * x34 + x29 * x35
   + x30 * x36 + x31 * x37 + x32 * x38 + x33 * x39 + x34 * x40 + x35 * x41
   + x36 * x42 + x37 * x43 + x38 * x44 + x39 * x45 + x40 * x46 + x41 * x47
   + x42 * x48 + x43 * x49 + x44 * x50 + x45 * x51 + x46 * x52 + x47 * x53
   + x48 * x54 + x49 * x55 + x50 * x56 + x51 * x57 + x52 * x58 + x53 * x59
   + x54 * x60 + x55 * x61 + x56 * x62 + x57 * x63 + x58 * x64 + x59 * x65
   + x60 * x66 + x61 * x67 + x62 * x68 + x63 * x69 + x64 * x70 + x65 * x71
   + x66 * x72 + x67 * x73 + x68 * x74 + x69 * x75 + x70 * x76 + x71 * x77
   + x72 * x78 + x73 * x79 + x74 * x80 + x75 * x81 + x76 * x82 + x77 * x83
   + x78 * x84 + x79 * x85 + x80 * x86 + x81 * x87 + x82 * x88 + x83 * x89
   + x84 * x90 + x85 * x91 + x86 * x92 + x87 * x93 + x88 * x94 + x89 * x95
   + x90 * x96 + x91 * x97 + x92 * x98 + x93 * x99 + x94 * x100
   + x95 * x101 + x96 * x102 + x97 * x103 + x98 * x104 + x99 * x105 ] >= 1
 qc1: [ x0 * x7 + x1 * x8 + x2 * x9 + x3 * x10 + x4 * x11 + x5 * x12
   + x6 * x13 + x7 * x14 + x8 * x15 + x9 * x16 + x10 * x17 + x11 * x18
   + x12 * x19 + x13 * x20 + x14 * x21 + x15 * x22 + x16 * x23 + x17 * x24
   + x18 * x25 + x19 * x26 + x20 * x27 + x21 * x28 + x22 * x29 + x23 * x30
   + x24 * x31 + x25 * x32 + x26 * x33 + x27 * x34 + x28 * x35 + x29 * x36
   + x30 * x37 + x31 * x38 + x32 * x39 + x33 * x40 + x34 * x41 + x35 * x42
   + x36 * x43 + x37 * x44 + x38 * x45 + x39 * x46 + x40 * x47 + x41 * x48
   + x42 * x49 + x43 * x50 + x44 * x51 + x45 * x52 + x46 * x53 + x47 * x54
   + x48 * x55 + x49 * x56 + x50 * x57 + x51 * x58 + x52 * x59 + x53 * x60
   + x54 * x61 + x55 * x62 + x56 * x63 + x57 * x64 + x58 * x65 + x59 * x66
   + x60 * x67 + x61 * x68 + x62 * x69 + x63 * x70 + x64 * x71 + x65 * x72
   + x66 * x73 + x67 * x74 + x68 * x75 + x69 * x76 + x70 * x77 + x71 * x78
   + x72 * x79 + x73 * x80 + x74 * x81 + x75 * x82 + x76 * x83 + x77 * x84
   + x78 * x85 + x79 * x86 + x80 * x87 + x81 * x88 + x82 * x89 + x83 * x90
   + x84 * x91 + x85 * x92 + x86 * x93 + x87 * x94 + x88 * x95 + x89 * x96
   + x90 * x97 + x91 * x98 + x92 * x99 + x93 * x100 + x94 * x101
   + x95 * x102 + x96 * x103 + x97 * x104 + x98 * x105 ] >= 1
 qc2: [ x0 * x8 + x1 * x9 + x2 * x10 + x3 * x11 + x4 * x12 + x5 * x13
   + x6 * x14 + x7 * x15 + x8 * x16 + x9 * x17 + x10 * x18 + x11 * x19
   + x12 * x20 + x13 * x21 + x14 * x22 + x15 * x23 + x16 * x24 + x17 * x25
   + x18 * x26 + x19 * x27 + x20 * x28 + x21 * x29 + x22 * x30 + x23 * x31
   + x24 * x32 + x25 * x33 + x26 * x34 + x27 * x35 + x28 * x36 + x29 * x37
   + x30 * x38 + x31 * x39 + x32 * x40 + x33 * x41 + x34 * x42 + x35 * x43
   + x36 * x44 + x37 * x45 + x38 * x46 + x39 * x47 + x40 * x48 + x41 * x49
   + x42 * x50 + x43 * x51 + x44 * x52 + x45 * x53 + x46 * x54 + x47 * x55
   + x48 * x56 + x49 * x57 + x50 * x58 + x51 * x59 + x52 * x60 + x53 * x61
   + x54 * x62 + x55 * x63 + x56 * x64 + x57 * x65 + x58 * x66 + x59 * x67
   + x60 * x68 + x61 * x69 + x62 * x70 + x63 * x71 + x64 * x72 + x65 * x73
   + x66 * x74 + x67 * x75 + x68 * x76 + x69 * x77 + x70 * x78 + x71 * x79
   + x72 * x80 + x73 * x81 + x74 * x82 + x75 * x83 + x76 * x84 + x77 * x85
   + x78 * x86 + x79 * x87 + x80 * x88 + x81 * x89 + x82 * x90 + x83 * x91
   + x84 * x92 + x85 * x93 + x86 * x94 + x87 * x95 + x88 * x96 + x89 * x97
   + x90 * x98 + x91 * x99 + x92 * x100 + x93 * x101 + x94 * x102
   + x95 * x103 + x96 * x104 + x97 * x105 ] >= 3
 qc3: [ x0 * x15 + x1 * x16 + x2 * x17 + x3 * x18 + x4 * x19 + x5 * x20
   + x6 * x21 + x7 * x22 + x8 * x23 + x9 * x24 + x10 * x25 + x11 * x26
   + x12 * x27 + x13 * x28 + x14 * x29 + x15 * x30 + x16 * x31 + x17 * x32
   + x18 * x33 + x19 * x34 + x20 * x35 + x21 * x36 + x22 * x37 + x23 * x38
   + x24 * x39 + x25 * x40 + x26 * x41 + x27 * x42 + x28 * x43 + x29 * x44
   + x30 * x45 + x31 * x46 + x32 * x47 + x33 * x48 + x34 * x49 + x35 * x50
   + x36 * x51 + x37 * x52 + x38 * x53 + x39 * x54 + x40 * x55 + x41 * x56
   + x42 * x57 + x43 * x58 + x44 * x59 + x45 * x60 + x46 * x61 + x47 * x62
   + x48 * x63 + x49 * x64 + x50 * x65 + x51 * x66 + x52 * x67 + x53 * x68
   + x54 * x69 + x55 * x70 + x56 * x71 + x57 * x72 + x58 * x73 + x59 * x74
   + x60 * x75 + x61 * x76 + x62 * x77 + x63 * x78 + x64 * x79 + x65 * x80
   + x66 * x81 + x67 * x82 + x68 * x83 + x69 * x84 + x70 * x85 + x71 * x86
   + x72 * x87 + x73 * x88 + x74 * x89 + x75 * x90 + x76 * x91 + x77 * x92
   + x78 * x93 + x79 * x94 + x80 * x95 + x81 * x96 + x82 * x97 + x83 * x98
   + x84 * x99 + x85 * x100 + x86 * x101 + x87 * x102 + x88 * x103
   + x89 * x104 + x90 * x105 ] >= 1
 qc4: [ x0 * x16 + x1 * x17 + x2 * x18 + x3 * x19 + x4 * x20 + x5 * x21
   + x6 * x22 + x7 * x23 + x8 * x24 + x9 * x25 + x10 * x26 + x11 * x27
   + x12 * x28 + x13 * x29 + x14 * x30 + x15 * x31 + x16 * x32 + x17 * x33
   + x18 * x34 + x19 * x35 + x20 * x36 + x21 * x37 + x22 * x38 + x23 * x39
   + x24 * x40 + x25 * x41 + x26 * x42 + x27 * x43 + x28 * x44 + x29 * x45
   + x30 * x46 + x31 * x47 + x32 * x48 + x33 * x49 + x34 * x50 + x35 * x51
   + x36 * x52 + x37 * x53 + x38 * x54 + x39 * x55 + x40 * x56 + x41 * x57
   + x42 * x58 + x43 * x59 + x44 * x60 + x45 * x61 + x46 * x62 + x47 * x63
   + x48 * x64 + x49 * x65 + x50 * x66 + x51 * x67 + x52 * x68 + x53 * x69
   + x54 * x70 + x55 * x71 + x56 * x72 + x57 * x73 + x58 * x74 + x59 * x75
   + x60 * x76 + x61 * x77 + x62 * x78 + x63 * x79 + x64 * x80 + x65 * x81
   + x66 * x82 + x67 * x83 + x68 * x84 + x69 * x85 + x70 * x86 + x71 * x87
   + x72 * x88 + x73 * x89 + x74 * x90 + x75 * x91 + x76 * x92 + x77 * x93
   + x78 * x94 + x79 * x95 + x80 * x96 + x81 * x97 + x82 * x98 + x83 * x99
   + x84 * x100 + x85 * x101 + x86 * x102 + x87 * x103 + x88 * x104
   + x89 * x105 ] >= 2
 qc5: [ x0 * x21 + x1 * x22 + x2 * x23 + x3 * x24 + x4 * x25 + x5 * x26
   + x6 * x27 + x7 * x28 + x8 * x29 + x9 * x30 + x10 * x31 + x11 * x32
   + x12 * x33 + x13 * x34 + x14 * x35 + x15 * x36 + x16 * x37 + x17 * x38
   + x18 * x39 + x19 * x40 + x20 * x41 + x21 * x42 + x22 * x43 + x23 * x44
   + x24 * x45 + x25 * x46 + x26 * x47 + x27 * x48 + x28 * x49 + x29 * x50
   + x30 * x51 + x31 * x52 + x32 * x53 + x33 * x54 + x34 * x55 + x35 * x56
   + x36 * x57 + x37 * x58 + x38 * x59 + x39 * x60 + x40 * x61 + x41 * x62
   + x42 * x63 + x43 * x64 + x44 * x65 + x45 * x66 + x46 * x67 + x47 * x68
   + x48 * x69 + x49 * x70 + x50 * x71 + x51 * x72 + x52 * x73 + x53 * x74
   + x54 * x75 + x55 * x76 + x56 * x77 + x57 * x78 + x58 * x79 + x59 * x80
   + x60 * x81 + x61 * x82 + x62 * x83 + x63 * x84 + x64 * x85 + x65 * x86
   + x66 * x87 + x67 * x88 + x68 * x89 + x69 * x90 + x70 * x91 + x71 * x92
   + x72 * x93 + x73 * x94 + x74 * x95 + x75 * x96 + x76 * x97 + x77 * x98
   + x78 * x99 + x79 * x100 + x80 * x101 + x81 * x102 + x82 * x103
   + x83 * x104 + x84 * x105 ] >= 1
Bounds
Binaries
 x0 x1 x2 x3 x4 x5 x6 x7 x8 x9 x10 x11 x12 x13 x14 x15 x16 x17 x18 x19 x20
 x21 x22 x23 x24 x25 x26 x27 x28 x29 x30 x31 x32 x33 x34 x35 x36 x37 x38
 x39 x40 x41 x42 x43 x44 x45 x46 x47 x48 x49 x50 x51 x52 x53 x54 x55 x56
 x57 x58 x59 x60 x61 x62 x63 x64 x65 x66 x67 x68 x69 x70 x71 x72 x73 x74
 x75 x76 x77 x78 x79 x80 x81 x82 x83 x84 x85 x86 x87 x88 x89 x90 x91 x92
 x93 x94 x95 x96 x97 x98 x99 x100 x101 x102 x103 x104 x105
End
